VALUE 1601190
1 296
6 48
7 243
10 12
12 197
14 224
15 215
15 16
16 17
19 199
22 51
26 262
30 287
33 104
36 267
39 120
40 257
41 68
44 67
48 50
50 51
51 55
41 55
67 74
68 70
70 71
71 74
74 78
78 81
33 81
104 116
116 118
118 152
116 120
152 153
153 156
156 164
164 172
172 173
19 173
197 223
199 209
204 231
204 206
208 220
208 209
206 212
212 213
213 215
14 220
223 227
17 224
227 229
7 229
231 236
229 234
234 236
1 243
39 257
40 262
262 266
266 267
26 287
6 297
7 298
10 299
12 300
14 301
17 302
19 303
22 304
26 305
30 306
33 307
36 308
39 309
41 310
44 311

